NAME          
ROWS
 N  OBJ
 L  c1
COLUMNS
    MARKER    'MARKER'                 'INTORG'
    x[1]      c1        203
    x[1]      OBJ       -634
    x[2]      c1        187
    x[2]      OBJ       -118
    x[3]      c1        847
    x[3]      OBJ       -25
    x[4]      c1        692
    x[4]      OBJ       -966
    x[5]      c1        27
    x[5]      OBJ       -24
    x[6]      c1        71
    x[6]      OBJ       -589
    x[7]      c1        590
    x[7]      OBJ       -908
    x[8]      c1        221
    x[8]      OBJ       -825
    x[9]      c1        444
    x[9]      OBJ       -17
    x[10]     c1        320
    x[10]     OBJ       -502
    x[11]     c1        950
    x[11]     OBJ       -375
    x[12]     c1        337
    x[12]     OBJ       -444
    x[13]     c1        605
    x[13]     OBJ       -458
    x[14]     c1        864
    x[14]     OBJ       -361
    x[15]     c1        549
    x[15]     OBJ       -779
    x[16]     c1        187
    x[16]     OBJ       -327
    x[17]     c1        204
    x[17]     OBJ       -629
    x[18]     c1        24
    x[18]     OBJ       -9
    x[19]     c1        161
    x[19]     OBJ       -349
    x[20]     c1        286
    x[20]     OBJ       -647
    x[21]     c1        586
    x[21]     OBJ       -676
    x[22]     c1        824
    x[22]     OBJ       -305
    x[23]     c1        471
    x[23]     OBJ       -302
    x[24]     c1        879
    x[24]     OBJ       -906
    x[25]     c1        115
    x[25]     OBJ       -536
    x[26]     c1        767
    x[26]     OBJ       -144
    x[27]     c1        169
    x[27]     OBJ       -972
    x[28]     c1        253
    x[28]     OBJ       -549
    x[29]     c1        506
    x[29]     OBJ       -786
    x[30]     c1        317
    x[30]     OBJ       -577
    x[31]     c1        224
    x[31]     OBJ       -313
    x[32]     c1        387
    x[32]     OBJ       -25
    x[33]     c1        934
    x[33]     OBJ       -826
    x[34]     c1        246
    x[34]     OBJ       -285
    x[35]     c1        446
    x[35]     OBJ       -77
    x[36]     c1        613
    x[36]     OBJ       -705
    x[37]     c1        945
    x[37]     OBJ       -188
    x[38]     c1        704
    x[38]     OBJ       -808
    x[39]     c1        862
    x[39]     OBJ       -113
    x[40]     c1        154
    x[40]     OBJ       -235
    x[41]     c1        340
    x[41]     OBJ       -332
    x[42]     c1        138
    x[42]     OBJ       -809
    x[43]     c1        501
    x[43]     OBJ       -530
    x[44]     c1        819
    x[44]     OBJ       -491
    x[45]     c1        932
    x[45]     OBJ       -267
    x[46]     c1        180
    x[46]     OBJ       -400
    x[47]     c1        789
    x[47]     OBJ       -882
    x[48]     c1        480
    x[48]     OBJ       -733
    x[49]     c1        974
    x[49]     OBJ       -887
    x[50]     c1        11
    x[50]     OBJ       -470
    x[51]     c1        107
    x[51]     OBJ       -530
    x[52]     c1        9
    x[52]     OBJ       -621
    x[53]     c1        269
    x[53]     OBJ       -48
    x[54]     c1        411
    x[54]     OBJ       -16
    x[55]     c1        967
    x[55]     OBJ       -912
    x[56]     c1        988
    x[56]     OBJ       -58
    x[57]     c1        652
    x[57]     OBJ       -736
    x[58]     c1        607
    x[58]     OBJ       -625
    x[59]     c1        272
    x[59]     OBJ       -875
    x[60]     c1        229
    x[60]     OBJ       -691
    x[61]     c1        956
    x[61]     OBJ       -905
    x[62]     c1        513
    x[62]     OBJ       -390
    x[63]     c1        627
    x[63]     OBJ       -275
    x[64]     c1        319
    x[64]     OBJ       -893
    x[65]     c1        574
    x[65]     OBJ       -433
    x[66]     c1        526
    x[66]     OBJ       -800
    x[67]     c1        765
    x[67]     OBJ       -942
    x[68]     c1        768
    x[68]     OBJ       -387
    x[69]     c1        800
    x[69]     OBJ       -627
    x[70]     c1        471
    x[70]     OBJ       -263
    x[71]     c1        370
    x[71]     OBJ       -175
    x[72]     c1        135
    x[72]     OBJ       -815
    x[73]     c1        680
    x[73]     OBJ       -876
    x[74]     c1        724
    x[74]     OBJ       -870
    x[75]     c1        102
    x[75]     OBJ       -260
    x[76]     c1        42
    x[76]     OBJ       -769
    x[77]     c1        69
    x[77]     OBJ       -962
    x[78]     c1        393
    x[78]     OBJ       -941
    x[79]     c1        516
    x[79]     OBJ       -138
    x[80]     c1        225
    x[80]     OBJ       -516
    x[81]     c1        817
    x[81]     OBJ       -760
    x[82]     c1        204
    x[82]     OBJ       -473
    x[83]     c1        556
    x[83]     OBJ       -505
    x[84]     c1        610
    x[84]     OBJ       -855
    x[85]     c1        742
    x[85]     OBJ       -506
    x[86]     c1        101
    x[86]     OBJ       -382
    x[87]     c1        699
    x[87]     OBJ       -509
    x[88]     c1        53
    x[88]     OBJ       -313
    x[89]     c1        683
    x[89]     OBJ       -893
    x[90]     c1        365
    x[90]     OBJ       -300
    x[91]     c1        273
    x[91]     OBJ       -789
    x[92]     c1        759
    x[92]     OBJ       -732
    x[93]     c1        732
    x[93]     OBJ       -898
    x[94]     c1        397
    x[94]     OBJ       -500
    x[95]     c1        189
    x[95]     OBJ       -242
    x[96]     c1        314
    x[96]     OBJ       -216
    x[97]     c1        284
    x[97]     OBJ       -419
    x[98]     c1        424
    x[98]     OBJ       -235
    x[99]     c1        514
    x[99]     OBJ       -973
    x[100]    c1        911
    x[100]    OBJ       -994
RHS
    rhs       c1        23524
RANGES
BOUNDS
 LO bounds    x[1]      0
 PL bounds    x[1]
 LO bounds    x[2]      0
 PL bounds    x[2]
 LO bounds    x[3]      0
 PL bounds    x[3]
 LO bounds    x[4]      0
 PL bounds    x[4]
 LO bounds    x[5]      0
 PL bounds    x[5]
 LO bounds    x[6]      0
 PL bounds    x[6]
 LO bounds    x[7]      0
 PL bounds    x[7]
 LO bounds    x[8]      0
 PL bounds    x[8]
 LO bounds    x[9]      0
 PL bounds    x[9]
 LO bounds    x[10]     0
 PL bounds    x[10]
 LO bounds    x[11]     0
 PL bounds    x[11]
 LO bounds    x[12]     0
 PL bounds    x[12]
 LO bounds    x[13]     0
 PL bounds    x[13]
 LO bounds    x[14]     0
 PL bounds    x[14]
 LO bounds    x[15]     0
 PL bounds    x[15]
 LO bounds    x[16]     0
 PL bounds    x[16]
 LO bounds    x[17]     0
 PL bounds    x[17]
 LO bounds    x[18]     0
 PL bounds    x[18]
 LO bounds    x[19]     0
 PL bounds    x[19]
 LO bounds    x[20]     0
 PL bounds    x[20]
 LO bounds    x[21]     0
 PL bounds    x[21]
 LO bounds    x[22]     0
 PL bounds    x[22]
 LO bounds    x[23]     0
 PL bounds    x[23]
 LO bounds    x[24]     0
 PL bounds    x[24]
 LO bounds    x[25]     0
 PL bounds    x[25]
 LO bounds    x[26]     0
 PL bounds    x[26]
 LO bounds    x[27]     0
 PL bounds    x[27]
 LO bounds    x[28]     0
 PL bounds    x[28]
 LO bounds    x[29]     0
 PL bounds    x[29]
 LO bounds    x[30]     0
 PL bounds    x[30]
 LO bounds    x[31]     0
 PL bounds    x[31]
 LO bounds    x[32]     0
 PL bounds    x[32]
 LO bounds    x[33]     0
 PL bounds    x[33]
 LO bounds    x[34]     0
 PL bounds    x[34]
 LO bounds    x[35]     0
 PL bounds    x[35]
 LO bounds    x[36]     0
 PL bounds    x[36]
 LO bounds    x[37]     0
 PL bounds    x[37]
 LO bounds    x[38]     0
 PL bounds    x[38]
 LO bounds    x[39]     0
 PL bounds    x[39]
 LO bounds    x[40]     0
 PL bounds    x[40]
 LO bounds    x[41]     0
 PL bounds    x[41]
 LO bounds    x[42]     0
 PL bounds    x[42]
 LO bounds    x[43]     0
 PL bounds    x[43]
 LO bounds    x[44]     0
 PL bounds    x[44]
 LO bounds    x[45]     0
 PL bounds    x[45]
 LO bounds    x[46]     0
 PL bounds    x[46]
 LO bounds    x[47]     0
 PL bounds    x[47]
 LO bounds    x[48]     0
 PL bounds    x[48]
 LO bounds    x[49]     0
 PL bounds    x[49]
 LO bounds    x[50]     0
 PL bounds    x[50]
 LO bounds    x[51]     0
 PL bounds    x[51]
 LO bounds    x[52]     0
 PL bounds    x[52]
 LO bounds    x[53]     0
 PL bounds    x[53]
 LO bounds    x[54]     0
 PL bounds    x[54]
 LO bounds    x[55]     0
 PL bounds    x[55]
 LO bounds    x[56]     0
 PL bounds    x[56]
 LO bounds    x[57]     0
 PL bounds    x[57]
 LO bounds    x[58]     0
 PL bounds    x[58]
 LO bounds    x[59]     0
 PL bounds    x[59]
 LO bounds    x[60]     0
 PL bounds    x[60]
 LO bounds    x[61]     0
 PL bounds    x[61]
 LO bounds    x[62]     0
 PL bounds    x[62]
 LO bounds    x[63]     0
 PL bounds    x[63]
 LO bounds    x[64]     0
 PL bounds    x[64]
 LO bounds    x[65]     0
 PL bounds    x[65]
 LO bounds    x[66]     0
 PL bounds    x[66]
 LO bounds    x[67]     0
 PL bounds    x[67]
 LO bounds    x[68]     0
 PL bounds    x[68]
 LO bounds    x[69]     0
 PL bounds    x[69]
 LO bounds    x[70]     0
 PL bounds    x[70]
 LO bounds    x[71]     0
 PL bounds    x[71]
 LO bounds    x[72]     0
 PL bounds    x[72]
 LO bounds    x[73]     0
 PL bounds    x[73]
 LO bounds    x[74]     0
 PL bounds    x[74]
 LO bounds    x[75]     0
 PL bounds    x[75]
 LO bounds    x[76]     0
 PL bounds    x[76]
 LO bounds    x[77]     0
 PL bounds    x[77]
 LO bounds    x[78]     0
 PL bounds    x[78]
 LO bounds    x[79]     0
 PL bounds    x[79]
 LO bounds    x[80]     0
 PL bounds    x[80]
 LO bounds    x[81]     0
 PL bounds    x[81]
 LO bounds    x[82]     0
 PL bounds    x[82]
 LO bounds    x[83]     0
 PL bounds    x[83]
 LO bounds    x[84]     0
 PL bounds    x[84]
 LO bounds    x[85]     0
 PL bounds    x[85]
 LO bounds    x[86]     0
 PL bounds    x[86]
 LO bounds    x[87]     0
 PL bounds    x[87]
 LO bounds    x[88]     0
 PL bounds    x[88]
 LO bounds    x[89]     0
 PL bounds    x[89]
 LO bounds    x[90]     0
 PL bounds    x[90]
 LO bounds    x[91]     0
 PL bounds    x[91]
 LO bounds    x[92]     0
 PL bounds    x[92]
 LO bounds    x[93]     0
 PL bounds    x[93]
 LO bounds    x[94]     0
 PL bounds    x[94]
 LO bounds    x[95]     0
 PL bounds    x[95]
 LO bounds    x[96]     0
 PL bounds    x[96]
 LO bounds    x[97]     0
 PL bounds    x[97]
 LO bounds    x[98]     0
 PL bounds    x[98]
 LO bounds    x[99]     0
 PL bounds    x[99]
 LO bounds    x[100]    0
 PL bounds    x[100]
ENDATA
